(declare-const a Real)
(declare-const b Real)
(declare-const c Real)
(assert (= (+ a b c) 3))
(assert (> a 0))
(assert (> b 0))
(assert (> c 0))
(assert (not (<= (+ (* -37500 (pow a 6)) (* -37500 (pow b 6)) (* -37500 (pow c 6)) (* -1237500 (pow a 3) (pow b 3)) (* -1237500 (pow a 3) (pow c 3)) (* -268750 (pow a 2) (pow b 4)) (* -268750 (pow a 2) (pow c 4)) (* -268750 (pow a 4) (pow b 2)) (* -268750 (pow a 4) (pow c 2)) (* -268750 (pow b 2) (pow c 4)) (* -268750 (pow b 4) (pow c 2)) (* -190625 (pow b 3) (pow c 3)) (* -81250 a (pow b 5)) (* -81250 a (pow c 5)) (* -81250 c (pow a 5)) (* -81250 c (pow b 5)) (* -59810 b (pow c 5)) (* 81560 b (pow a 5)) (* -6637500 (pow a 2) (pow b 2) (pow c 2)) (* 80400 a b (+ 1 (pow c 8))) (* 542700 b c (pow a 4)) (* 723600 b (pow a 3) (pow c 2)) (* 2093750 a (pow b 3) (pow c 2)) (* 2093750 c (pow a 2) (pow b 3)) (* 2093750 c (pow a 3) (pow b 2)) (* 3623025 b (pow a 2) (pow c 3))) 0)))
(check-sat)
(get-model)
(exit)